20 1 4
322 73 404 195 922 809 737 677 851 17 483 872 673 746 120 1000 514 739 872 345 
26 632 394 318 185 623 989 222 227 625 993 549 698 397 744 619 205 480 296 56 
496 778 927 169 523 46 168 36 785 40 380 811 671 774 128 856 397 116 77 623 
740 69 172 438 465 915 57 670 395 352 725 891 129 651 59 652 697 227 687 482 
2670 670 2920 9380 8400 4190 7930 2360 5350 8700 8590 2750 9390 300 7120 4040 9440 7680 730 3380 
52990
